Input: forum-14.prec25.dzn
============================================================
Total Runtime: 7.0185 seconds
Input parsing: 0.0288 seconds
Constraint building: 1.3073 seconds
MaxSAT solving: 4.8134 seconds
============================================================

Total variables: 324136
Total clauses: 682756
MaxSAT found with cost: 0
NO SOLUTION FOUND
